(declare-const c_0 Real)
(declare-const c_1 Real)
(declare-const c_2 Real)
(declare-const c_3 Real)
(declare-const c_4 Real)
(declare-const c_5 Real)
(declare-const c_6 Real)
(declare-const c_7 Real)
(declare-const c_8 Real)
(declare-const c_9 Real)
(declare-const c_10 Real)
(declare-const c_11 Real)
(declare-const c_12 Real)
(declare-const c_13 Real)
(declare-const c_14 Real)
(declare-const c_15 Real)
(declare-const c_16 Real)
(declare-const c_17 Real)
(declare-const c_18 Real)
(declare-const c_19 Real)
(declare-const s_0 Real)
(declare-const s_1 Real)
(declare-const s_2 Real)
(declare-const s_3 Real)
(declare-const s_4 Real)
(declare-const s_5 Real)
(declare-const s_6 Real)
(declare-const s_7 Real)
(declare-const s_8 Real)
(declare-const s_9 Real)
(declare-const s_10 Real)
(declare-const s_11 Real)
(declare-const s_12 Real)
(declare-const s_13 Real)
(declare-const s_14 Real)
(declare-const s_15 Real)
(declare-const s_16 Real)
(declare-const s_17 Real)
(declare-const s_18 Real)
(declare-const s_19 Real)
(assert (forall ((x Real) (i Real) (y Real) (z Real) ) (=> (and (>= (+ (* 1024 1) (* 1 x ) ) 0) (>= (+ (* 1023 1) (* (- 1) x ) ) 0) (>= (+ (* 1024 1) (* 1 i ) ) 0) (>= (+ (* 1023 1) (* (- 1) i ) ) 0) (>= (+ (* 1024 1) (* 1 y ) ) 0) (>= (+ (* 1023 1) (* (- 1) y ) ) 0) (>= (+ (* 1024 1) (* 1 z ) ) 0) (>= (+ (* 1023 1) (* (- 1) z ) ) 0) ) (>= (+ (* 1 i s_1 ) (* 1 s_0 ) (* 1 s_2 x ) (* 1 s_3 y ) (* 1 s_4 z ) ) 0) )))
(assert (forall ((x Real) (i Real) (y Real) (z Real) ) (=> (and (>= (+ (* 1024 1) (* 1 x ) ) 0) (>= (+ (* 1023 1) (* (- 1) x ) ) 0) (>= (+ (* 1024 1) (* 1 i ) ) 0) (>= (+ (* 1023 1) (* (- 1) i ) ) 0) (>= (+ (* 1024 1) (* 1 y ) ) 0) (>= (+ (* 1023 1) (* (- 1) y ) ) 0) (>= (+ (* 1024 1) (* 1 z ) ) 0) (>= (+ (* 1023 1) (* (- 1) z ) ) 0) ) (>= (+ (* 1 c_0 ) (* 1 c_1 i ) (* 1 c_2 x ) (* 1 c_3 y ) (* 1 c_4 z ) ) 0) )))
(assert (forall ((x Real) (i Real) (y Real) (z Real) ) (=> (and (>= (+ (* (- 1) 1) (* 1 y ) ) 0) (>= (+ (* (- 1) 1) (* 1 x ) ) 0) (>= (+ (* 1023 1) (* (- 1) z ) ) 0) (>= (+ (* 1024 1) (* 1 z ) ) 0) (>= (+ (* 1023 1) (* (- 1) y ) ) 0) (>= (+ (* 1024 1) (* 1 y ) ) 0) (>= (+ (* 1023 1) (* (- 1) i ) ) 0) (>= (+ (* 1024 1) (* 1 i ) ) 0) (>= (+ (* 1023 1) (* (- 1) x ) ) 0) (>= (+ (* 1024 1) (* 1 x ) ) 0) (>= (+ (* 1 i s_1 ) (* 1 s_0 ) (* 1 s_2 x ) (* 1 s_3 y ) (* 1 s_4 z ) ) 0) ) (>= (+ (* 1 s_5 ) (* 1 s_6 x ) (* 1 s_7 x ) (* 1 s_8 y ) ) 0) )))
(assert (forall ((x Real) (i Real) (y Real) (z Real) ) (=> (and (>= (+ (* (- 1) 1) (* 1 y ) ) 0) (>= (+ (* (- 1) 1) (* 1 x ) ) 0) (>= (+ (* 1023 1) (* (- 1) z ) ) 0) (>= (+ (* 1024 1) (* 1 z ) ) 0) (>= (+ (* 1023 1) (* (- 1) y ) ) 0) (>= (+ (* 1024 1) (* 1 y ) ) 0) (>= (+ (* 1023 1) (* (- 1) i ) ) 0) (>= (+ (* 1024 1) (* 1 i ) ) 0) (>= (+ (* 1023 1) (* (- 1) x ) ) 0) (>= (+ (* 1024 1) (* 1 x ) ) 0) (>= (+ (* 1 i s_1 ) (* 1 s_0 ) (* 1 s_2 x ) (* 1 s_3 y ) (* 1 s_4 z ) ) 0) ) (>= (+ (* 1 c_5 ) (* 1 c_6 x ) (* 1 c_7 x ) (* 1 c_8 y ) ) 0) )))
(assert (forall ((x Real) (i Real) (y Real) (z Real) ) (=> (and (>= (+ (* (- 1) 1) (* 1 y ) ) 0) (>= (+ (* (- 1) 1) (* 1 x ) ) 0) (>= (+ (* 1023 1) (* (- 1) z ) ) 0) (>= (+ (* 1024 1) (* 1 z ) ) 0) (>= (+ (* 1023 1) (* (- 1) y ) ) 0) (>= (+ (* 1024 1) (* 1 y ) ) 0) (>= (+ (* 1023 1) (* (- 1) i ) ) 0) (>= (+ (* 1024 1) (* 1 i ) ) 0) (>= (+ (* 1023 1) (* (- 1) x ) ) 0) (>= (+ (* 1024 1) (* 1 x ) ) 0) (>= (+ (* 1 i s_1 ) (* 1 s_0 ) (* 1 s_2 x ) (* 1 s_3 y ) (* 1 s_4 z ) ) 0) ) (>= (+ (* (- 1) 1) (* 1 c_0 ) (* 1 c_1 i ) (* 1 c_2 x ) (* 1 c_3 y ) (* 1 c_4 z ) (* (- 1) c_5 ) (* (- 1) c_6 x ) (* (- 1) c_7 x ) (* (- 1) c_8 y ) ) 0) )))
(assert (forall ((x Real) (i Real) (y Real) (z Real) ) (=> (and (>= (* (- 1) y ) 0) (>= (+ (* 1023 1) (* (- 1) z ) ) 0) (>= (+ (* 1024 1) (* 1 z ) ) 0) (>= (+ (* 1023 1) (* (- 1) y ) ) 0) (>= (+ (* 1024 1) (* 1 y ) ) 0) (>= (+ (* 1023 1) (* (- 1) i ) ) 0) (>= (+ (* 1024 1) (* 1 i ) ) 0) (>= (+ (* 1023 1) (* (- 1) x ) ) 0) (>= (+ (* 1024 1) (* 1 x ) ) 0) (>= (+ (* 1 i s_1 ) (* 1 s_0 ) (* 1 s_2 x ) (* 1 s_3 y ) (* 1 s_4 z ) ) 0) ) (>= (+ (* 1 s_15 ) (* 1 s_16 x ) (* 1 s_17 x ) (* 1 s_18 y ) ) 0) )))
(assert (forall ((x Real) (i Real) (y Real) (z Real) ) (=> (and (>= (* (- 1) y ) 0) (>= (+ (* 1023 1) (* (- 1) z ) ) 0) (>= (+ (* 1024 1) (* 1 z ) ) 0) (>= (+ (* 1023 1) (* (- 1) y ) ) 0) (>= (+ (* 1024 1) (* 1 y ) ) 0) (>= (+ (* 1023 1) (* (- 1) i ) ) 0) (>= (+ (* 1024 1) (* 1 i ) ) 0) (>= (+ (* 1023 1) (* (- 1) x ) ) 0) (>= (+ (* 1024 1) (* 1 x ) ) 0) (>= (+ (* 1 i s_1 ) (* 1 s_0 ) (* 1 s_2 x ) (* 1 s_3 y ) (* 1 s_4 z ) ) 0) ) (>= (+ (* 1 c_15 ) (* 1 c_16 x ) (* 1 c_17 x ) (* 1 c_18 y ) ) 0) )))
(assert (forall ((x Real) (i Real) (y Real) (z Real) ) (=> (and (>= (* (- 1) x ) 0) (>= (+ (* 1023 1) (* (- 1) z ) ) 0) (>= (+ (* 1024 1) (* 1 z ) ) 0) (>= (+ (* 1023 1) (* (- 1) y ) ) 0) (>= (+ (* 1024 1) (* 1 y ) ) 0) (>= (+ (* 1023 1) (* (- 1) i ) ) 0) (>= (+ (* 1024 1) (* 1 i ) ) 0) (>= (+ (* 1023 1) (* (- 1) x ) ) 0) (>= (+ (* 1024 1) (* 1 x ) ) 0) (>= (+ (* 1 i s_1 ) (* 1 s_0 ) (* 1 s_2 x ) (* 1 s_3 y ) (* 1 s_4 z ) ) 0) ) (>= (+ (* 1 s_15 ) (* 1 s_16 x ) (* 1 s_17 x ) (* 1 s_18 y ) ) 0) )))
(assert (forall ((x Real) (i Real) (y Real) (z Real) ) (=> (and (>= (* (- 1) x ) 0) (>= (+ (* 1023 1) (* (- 1) z ) ) 0) (>= (+ (* 1024 1) (* 1 z ) ) 0) (>= (+ (* 1023 1) (* (- 1) y ) ) 0) (>= (+ (* 1024 1) (* 1 y ) ) 0) (>= (+ (* 1023 1) (* (- 1) i ) ) 0) (>= (+ (* 1024 1) (* 1 i ) ) 0) (>= (+ (* 1023 1) (* (- 1) x ) ) 0) (>= (+ (* 1024 1) (* 1 x ) ) 0) (>= (+ (* 1 i s_1 ) (* 1 s_0 ) (* 1 s_2 x ) (* 1 s_3 y ) (* 1 s_4 z ) ) 0) ) (>= (+ (* 1 c_15 ) (* 1 c_16 x ) (* 1 c_17 x ) (* 1 c_18 y ) ) 0) )))
(assert (forall ((x Real) (i Real) (y Real) (z Real) ) (=> (and (>= (+ (* (- 1) 1) (* 1 i ) ) 0) (>= (+ (* 1023 1) (* (- 1) y ) ) 0) (>= (+ (* (- 1) 1) (* 1 y ) ) 0) (>= (+ (* (- 1) i ) (* 1 x ) ) 0) (>= (+ (* (- 1) 1) (* 1 x ) ) 0) (>= (+ (* 1023 1) (* (- 1) x ) ) 0) (>= (+ (* 1 i ) (* (- 1) x ) (* 1 z ) ) 0) (>= (+ (* (- 1) i ) (* 1 x ) (* (- 1) z ) ) 0) (>= (+ (* 1 i s_6 ) (* 1 s_5 ) (* 1 s_7 x ) (* 1 s_8 y ) (* 1 s_9 z ) ) 0) ) (>= (+ (* 1 i s_6 ) (* 1 s_5 ) (* (- 1) s_6 ) (* 1 s_7 x ) (* 1 s_8 y ) (* 1 s_9 ) (* 1 s_9 z ) ) 0) )))
(assert (forall ((x Real) (i Real) (y Real) (z Real) ) (=> (and (>= (+ (* (- 1) 1) (* 1 i ) ) 0) (>= (+ (* 1023 1) (* (- 1) y ) ) 0) (>= (+ (* (- 1) 1) (* 1 y ) ) 0) (>= (+ (* (- 1) i ) (* 1 x ) ) 0) (>= (+ (* (- 1) 1) (* 1 x ) ) 0) (>= (+ (* 1023 1) (* (- 1) x ) ) 0) (>= (+ (* 1 i ) (* (- 1) x ) (* 1 z ) ) 0) (>= (+ (* (- 1) i ) (* 1 x ) (* (- 1) z ) ) 0) (>= (+ (* 1 i s_6 ) (* 1 s_5 ) (* 1 s_7 x ) (* 1 s_8 y ) (* 1 s_9 z ) ) 0) ) (>= (+ (* 1 c_5 ) (* (- 1) c_6 ) (* 1 c_6 i ) (* 1 c_7 x ) (* 1 c_8 y ) (* 1 c_9 ) (* 1 c_9 z ) ) 0) )))
(assert (forall ((x Real) (i Real) (y Real) (z Real) ) (=> (and (>= (+ (* (- 1) 1) (* 1 i ) ) 0) (>= (+ (* 1023 1) (* (- 1) y ) ) 0) (>= (+ (* (- 1) 1) (* 1 y ) ) 0) (>= (+ (* (- 1) i ) (* 1 x ) ) 0) (>= (+ (* (- 1) 1) (* 1 x ) ) 0) (>= (+ (* 1023 1) (* (- 1) x ) ) 0) (>= (+ (* 1 i ) (* (- 1) x ) (* 1 z ) ) 0) (>= (+ (* (- 1) i ) (* 1 x ) (* (- 1) z ) ) 0) (>= (+ (* 1 i s_6 ) (* 1 s_5 ) (* 1 s_7 x ) (* 1 s_8 y ) (* 1 s_9 z ) ) 0) ) (>= (+ (* (- 1) 1) (* 1 c_6 ) (* (- 1) c_9 ) ) 0) )))
(assert (forall ((x Real) (i Real) (y Real) (z Real) ) (=> (and (>= (* (- 1) i ) 0) (>= (+ (* 1023 1) (* (- 1) y ) ) 0) (>= (+ (* (- 1) 1) (* 1 y ) ) 0) (>= (+ (* (- 1) i ) (* 1 x ) ) 0) (>= (+ (* (- 1) 1) (* 1 x ) ) 0) (>= (+ (* 1023 1) (* (- 1) x ) ) 0) (>= (+ (* 1 i ) (* (- 1) x ) (* 1 z ) ) 0) (>= (+ (* (- 1) i ) (* 1 x ) (* (- 1) z ) ) 0) (>= (+ (* 1 i s_6 ) (* 1 s_5 ) (* 1 s_7 x ) (* 1 s_8 y ) (* 1 s_9 z ) ) 0) ) (>= (+ (* 1 i s_11 ) (* 1 s_10 ) (* 1 s_12 x ) (* 1 s_13 y ) (* 1 s_14 z ) ) 0) )))
(assert (forall ((x Real) (i Real) (y Real) (z Real) ) (=> (and (>= (* (- 1) i ) 0) (>= (+ (* 1023 1) (* (- 1) y ) ) 0) (>= (+ (* (- 1) 1) (* 1 y ) ) 0) (>= (+ (* (- 1) i ) (* 1 x ) ) 0) (>= (+ (* (- 1) 1) (* 1 x ) ) 0) (>= (+ (* 1023 1) (* (- 1) x ) ) 0) (>= (+ (* 1 i ) (* (- 1) x ) (* 1 z ) ) 0) (>= (+ (* (- 1) i ) (* 1 x ) (* (- 1) z ) ) 0) (>= (+ (* 1 i s_6 ) (* 1 s_5 ) (* 1 s_7 x ) (* 1 s_8 y ) (* 1 s_9 z ) ) 0) ) (>= (+ (* 1 c_10 ) (* 1 c_11 i ) (* 1 c_12 x ) (* 1 c_13 y ) (* 1 c_14 z ) ) 0) )))
(assert (forall ((x Real) (i Real) (y Real) (z Real) ) (=> (and (>= (* (- 1) i ) 0) (>= (+ (* 1023 1) (* (- 1) y ) ) 0) (>= (+ (* (- 1) 1) (* 1 y ) ) 0) (>= (+ (* (- 1) i ) (* 1 x ) ) 0) (>= (+ (* (- 1) 1) (* 1 x ) ) 0) (>= (+ (* 1023 1) (* (- 1) x ) ) 0) (>= (+ (* 1 i ) (* (- 1) x ) (* 1 z ) ) 0) (>= (+ (* (- 1) i ) (* 1 x ) (* (- 1) z ) ) 0) (>= (+ (* 1 i s_6 ) (* 1 s_5 ) (* 1 s_7 x ) (* 1 s_8 y ) (* 1 s_9 z ) ) 0) ) (>= (+ (* (- 1) 1) (* (- 1) c_10 ) (* (- 1) c_11 i ) (* (- 1) c_12 x ) (* (- 1) c_13 y ) (* (- 1) c_14 z ) (* 1 c_5 ) (* 1 c_6 i ) (* 1 c_7 x ) (* 1 c_8 y ) (* 1 c_9 z ) ) 0) )))
(assert (forall ((x Real) (i Real) (y Real) (z Real) ) (=> (and (>= (+ (* (- 1) 1) (* (- 1) i ) (* 1 y ) ) 0) (>= (+ (* 1023 1) (* (- 1) y ) ) 0) (>= (+ (* (- 1) 1) (* 1 y ) ) 0) (>= (+ (* (- 1) 1) (* 1 x ) ) 0) (>= (+ (* 1023 1) (* (- 1) x ) ) 0) (>= (+ (* 1 i ) (* (- 1) x ) (* 1 z ) ) 0) (>= (+ (* (- 1) i ) (* 1 x ) (* (- 1) z ) ) 0) (>= (+ (* 1 i s_11 ) (* 1 s_10 ) (* 1 s_12 x ) (* 1 s_13 y ) (* 1 s_14 z ) ) 0) ) (>= (+ (* 1 i s_11 ) (* 1 s_10 ) (* 1 s_11 ) (* 1 s_12 x ) (* 1 s_13 y ) (* (- 1) s_14 ) (* 1 s_14 z ) ) 0) )))
(assert (forall ((x Real) (i Real) (y Real) (z Real) ) (=> (and (>= (+ (* (- 1) 1) (* (- 1) i ) (* 1 y ) ) 0) (>= (+ (* 1023 1) (* (- 1) y ) ) 0) (>= (+ (* (- 1) 1) (* 1 y ) ) 0) (>= (+ (* (- 1) 1) (* 1 x ) ) 0) (>= (+ (* 1023 1) (* (- 1) x ) ) 0) (>= (+ (* 1 i ) (* (- 1) x ) (* 1 z ) ) 0) (>= (+ (* (- 1) i ) (* 1 x ) (* (- 1) z ) ) 0) (>= (+ (* 1 i s_11 ) (* 1 s_10 ) (* 1 s_12 x ) (* 1 s_13 y ) (* 1 s_14 z ) ) 0) ) (>= (+ (* 1 c_10 ) (* 1 c_11 ) (* 1 c_11 i ) (* 1 c_12 x ) (* 1 c_13 y ) (* (- 1) c_14 ) (* 1 c_14 z ) ) 0) )))
(assert (forall ((x Real) (i Real) (y Real) (z Real) ) (=> (and (>= (+ (* (- 1) 1) (* (- 1) i ) (* 1 y ) ) 0) (>= (+ (* 1023 1) (* (- 1) y ) ) 0) (>= (+ (* (- 1) 1) (* 1 y ) ) 0) (>= (+ (* (- 1) 1) (* 1 x ) ) 0) (>= (+ (* 1023 1) (* (- 1) x ) ) 0) (>= (+ (* 1 i ) (* (- 1) x ) (* 1 z ) ) 0) (>= (+ (* (- 1) i ) (* 1 x ) (* (- 1) z ) ) 0) (>= (+ (* 1 i s_11 ) (* 1 s_10 ) (* 1 s_12 x ) (* 1 s_13 y ) (* 1 s_14 z ) ) 0) ) (>= (+ (* (- 1) 1) (* (- 1) c_11 ) (* 1 c_14 ) ) 0) )))
(assert (forall ((x Real) (i Real) (y Real) (z Real) ) (=> (and (>= (+ (* 1 i ) (* (- 1) y ) ) 0) (>= (+ (* 1023 1) (* (- 1) y ) ) 0) (>= (+ (* (- 1) 1) (* 1 y ) ) 0) (>= (+ (* (- 1) 1) (* 1 x ) ) 0) (>= (+ (* 1023 1) (* (- 1) x ) ) 0) (>= (+ (* 1 i ) (* (- 1) x ) (* 1 z ) ) 0) (>= (+ (* (- 1) i ) (* 1 x ) (* (- 1) z ) ) 0) (>= (+ (* 1 i s_11 ) (* 1 s_10 ) (* 1 s_12 x ) (* 1 s_13 y ) (* 1 s_14 z ) ) 0) ) (>= (+ (* 1 i s_16 ) (* 1 s_15 ) (* 1 s_17 x ) (* 1 s_18 y ) (* 1 s_19 z ) ) 0) )))
(assert (forall ((x Real) (i Real) (y Real) (z Real) ) (=> (and (>= (+ (* 1 i ) (* (- 1) y ) ) 0) (>= (+ (* 1023 1) (* (- 1) y ) ) 0) (>= (+ (* (- 1) 1) (* 1 y ) ) 0) (>= (+ (* (- 1) 1) (* 1 x ) ) 0) (>= (+ (* 1023 1) (* (- 1) x ) ) 0) (>= (+ (* 1 i ) (* (- 1) x ) (* 1 z ) ) 0) (>= (+ (* (- 1) i ) (* 1 x ) (* (- 1) z ) ) 0) (>= (+ (* 1 i s_11 ) (* 1 s_10 ) (* 1 s_12 x ) (* 1 s_13 y ) (* 1 s_14 z ) ) 0) ) (>= (+ (* 1 c_15 ) (* 1 c_16 i ) (* 1 c_17 x ) (* 1 c_18 y ) (* 1 c_19 z ) ) 0) )))

(check-sat)
(get-model)
